23
2 10 13 
2 19 22 
2 43 55 
2 31 25 
2 28 4 
2 34 16 
1 7 
2 49 42 
3 39 1 2 
3 3 37 24 
3 18 46 15 
3 40 48 47 
3 51 52 33 
3 54 59 29 
3 36 9 41 
3 60 6 53 
3 27 57 45 
3 30 8 21 
3 32 38 17 
3 5 26 50 
3 44 35 23 
3 12 20 14 
3 56 11 58 
